============================[ Problem Statistics ]=============================|                                                                             ||  Number of variables:          4242                                         ||  Number of clauses:            9827                                         ||  Parse time:                   0.23 s                                       ||                                                                             |============================[ Search Statistics ]==============================| Conflicts |          ORIGINAL         |          LEARNT          | Progress ||           |    Vars  Clauses Literals |    Limit  Clauses Lit/Cl |          |===============================================================================|       100 |    1591     6032   344313 |     2211      100     53 | 62.501 % |===============================================================================restarts              : 2conflicts             : 135            (361 /sec)decisions             : 306            (0.00 % random) (818 /sec)propagations          : 9924           (26535 /sec)conflict literals     : 8369           (95.54 % deleted)CPU time              : 0.374 sSATISFIABLE